100 500 200 500 10 100
100 484
70 403
92 479
28 221
64 431
66 489
36 500
65 467
50 203
29 448
18 373
59 452
15 237
55 204
13 283
56 288
61 312
100 390
44 361
59 292
40 358
75 226
94 354
88 241
90 210
18 401
85 379
77 367
95 456
27 326
12 204
26 254
51 302
68 356
60 252
100 452
57 427
18 416
29 471
46 285
30 446
69 312
91 337
58 438
29 248
46 229
65 375
84 267
42 477
17 337
84 217
99 337
97 266
44 423
29 209
88 416
51 442
54 478
92 405
81 320
94 428
96 403
42 382
28 478
47 290
83 335
59 403
62 201
50 224
34 454
39 330
18 387
69 346
39 299
81 227
88 452
52 467
32 456
26 324
75 455
56 246
47 471
37 211
22 366
58 294
10 417
22 387
84 444
88 416
20 231
48 361
95 245
99 337
38 425
47 382
40 272
23 367
60 224
93 413
44 261
